100 97621

 541 286
700 158
829 450
792 356
883 683
968 967
440 364
951 63
724 898
71 38
682 953
687 665
906 942
373 200
585 41
13 489
333 451
63 332
522 958
818 823
207 662
528 163
205 735
121 728
511 426
80 925
588 167
32 268
107 64
550 796
592 622
29 315
574 164
839 41
723 167
132 454
593 248
673 259
38 876
856 516
907 730
851 36
825 366
745 480
634 187
679 121
807 871
663 940
328 79
376 350
898 959
18 84
699 644
955 973
707 979
994 472
688 163
35 203
828 890
285 912
447 608
313 767
269 740
432 662
379 828
634 686
814 535
298 237
214 744
667 474
671 295
902 802
16 697
854 938
522 166
622 650
92 245
433 904
228 100
255 657
505 792
813 355
744 955
591 851
540 295
428 8
973 297
561 282
254 890
231 968
612 71
523 472
8 549
831 93
705 378
662 318
69 537
363 662
936 704
863 137
